NAME: n20q45F.tsp, 20 nodes, semilla 555
COMMENT: Problema aleatorio de norma euclidea
DIMENSION: 20
CAPACITY: 45
EDGE_WEIGHT_TYPE: EUC_2D
NODE_COORD_SECTION
1   0.0000   0.0000
2 -190.0000 352.0000
3 -499.0000 -350.0000
4 -55.0000 313.0000
5 -219.0000 340.0000
6 -193.0000 -388.0000
7 279.0000 -430.0000
8 -47.0000 -281.0000
9 270.0000 -80.0000
10 169.0000 -240.0000
11 -291.0000 -261.0000
12 328.0000 -142.0000
13 117.0000 313.0000
14 -169.0000 -87.0000
15 474.0000 378.0000
16 -238.0000 -472.0000
17  40.0000  71.0000
18 342.0000 -415.0000
19 -414.0000 202.0000
20  13.0000 173.0000
DISPLAY_DATA_SECTION:
 1  250  250
 2  155  426
 3    0   75
 4  222  406
 5  140  420
 6  153   56
 7  389   35
 8  226  109
 9  385  210
10  334  130
11  104  119
12  414  179
13  308  406
14  165  206
15  487  439
16  131   14
17  270  285
18  421   42
19   43  351
20  256  336
DEMAND_SECTION
1 1
2 8
3 3
4 -10
5 -3
6 3
7 -5
8 1
9 -2
10 2
11 -10
12 -7
13 1
14 6
15 6
16 2
17 7
18 -2
19 5
20 -6
EOF